10	10
5	0	0	2	3	5	4	5	6	1	9	1	8	1	2	0	7	3	1	2
7	4	4	0	0	3	9	0	8	0	1	3	5	1	3	0	2	1	6	0
8	5	0	5	2	2	6	2	9	4	3	1	4	3	5	0	7	2	1	2
7	0	0	5	8	1	6	1	9	2	5	1	2	2	3	3	1	1	4	0
1	5	7	1	6	1	4	2	2	0	0	4	8	3	3	3	5	5	9	4
9	0	4	3	3	3	6	2	0	4	7	2	2	4	8	1	1	4	5	1
8	3	4	2	2	4	3	1	6	1	1	2	0	5	5	0	7	4	9	0
9	4	0	5	7	3	2	3	8	4	4	2	6	4	3	3	1	4	5	1
8	0	5	5	3	1	0	2	9	0	1	4	4	3	6	3	2	2	7	0
6	5	8	2	9	3	7	4	0	0	4	1	2	0	3	1	5	1	1	4
